language Essence 1.3

letting blksize_delta be
        function(1 --> 10, 2 --> 10, 3 --> 10, 4 --> 10, 5 --> 10, 6 --> 10, 7 --> 10, 8 --> 10, 9 --> 10, 10 --> 10,
                 11 --> 10, 12 --> 10, 13 --> 10, 14 --> 10, 15 --> 10, 16 --> 10, 17 --> 10, 18 --> 10, 19 --> 10,
                 20 --> 10, 21 --> 10, 22 --> 10, 23 --> 10, 24 --> 10, 25 --> 10, 26 --> 10, 27 --> 10, 28 --> 10,
                 29 --> 10, 30 --> 10, 31 --> 10, 32 --> 10, 33 --> 10, 34 --> 10, 35 --> 10, 36 --> 10, 37 --> 10,
                 38 --> 10, 39 --> 10, 40 --> 10)
letting maxcars be
        function(1 --> 9, 2 --> 9, 3 --> 9, 4 --> 9, 5 --> 9, 6 --> 9, 7 --> 9, 8 --> 9, 9 --> 9, 10 --> 9, 11 --> 9,
                 12 --> 9, 13 --> 10, 14 --> 9, 15 --> 9, 16 --> 9, 17 --> 9, 18 --> 9, 19 --> 10, 20 --> 9, 21 --> 9,
                 22 --> 10, 23 --> 10, 24 --> 9, 25 --> 9, 26 --> 9, 27 --> 9, 28 --> 10, 29 --> 9, 30 --> 9, 31 --> 10,
                 32 --> 9, 33 --> 9, 34 --> 9, 35 --> 10, 36 --> 10, 37 --> 10, 38 --> 9, 39 --> 10, 40 --> 9)
letting n_cars be 159
letting n_classes be 16
letting n_options be 40
letting quantity be
        function(1 --> 9, 2 --> 10, 3 --> 10, 4 --> 10, 5 --> 10, 6 --> 10, 7 --> 10, 8 --> 10, 9 --> 10, 10 --> 10,
                 11 --> 10, 12 --> 10, 13 --> 10, 14 --> 10, 15 --> 10, 16 --> 10)
letting usage be
        relation((1, 8), (1, 9), (1, 10), (1, 16), (1, 20), (1, 25), (1, 28), (1, 30), (1, 33), (1, 37), (1, 39),
                 (2, 1), (2, 2), (2, 6), (2, 7), (2, 9), (2, 10), (2, 14), (2, 19), (2, 24), (2, 26), (2, 30), (3, 2),
                 (3, 5), (3, 8), (3, 12), (3, 19), (3, 24), (3, 29), (3, 30), (3, 33), (3, 36), (3, 38), (4, 5), (4, 8),
                 (4, 12), (4, 20), (4, 28), (4, 31), (4, 33), (4, 35), (4, 37), (4, 40), (5, 2), (5, 5), (5, 6),
                 (5, 12), (5, 17), (5, 18), (5, 19), (5, 23), (5, 25), (5, 27), (5, 29), (5, 33), (5, 34), (5, 40),
                 (6, 10), (6, 11), (6, 18), (6, 21), (6, 30), (6, 36), (6, 37), (6, 39), (7, 3), (7, 5), (7, 8),
                 (7, 19), (7, 21), (7, 22), (7, 26), (7, 29), (7, 33), (7, 37), (7, 38), (8, 2), (8, 4), (8, 5), (8, 7),
                 (8, 8), (8, 9), (8, 10), (8, 18), (8, 22), (8, 23), (8, 24), (8, 26), (8, 30), (8, 36), (9, 1), (9, 2),
                 (9, 6), (9, 9), (9, 12), (9, 17), (9, 20), (9, 23), (9, 26), (9, 32), (9, 37), (9, 38), (9, 39),
                 (10, 17), (10, 19), (10, 23), (10, 24), (10, 29), (10, 31), (10, 32), (10, 33), (10, 35), (10, 37),
                 (10, 40), (11, 1), (11, 2), (11, 4), (11, 7), (11, 8), (11, 18), (11, 20), (11, 27), (11, 28),
                 (11, 35), (12, 1), (12, 3), (12, 4), (12, 6), (12, 7), (12, 11), (12, 15), (12, 17), (12, 18),
                 (12, 20), (12, 29), (12, 31), (12, 32), (12, 34), (12, 35), (12, 38), (12, 40), (13, 21), (13, 36),
                 (13, 37), (14, 17), (14, 20), (14, 21), (14, 25), (14, 26), (14, 32), (14, 34), (15, 3), (15, 5),
                 (15, 10), (15, 12), (15, 13), (15, 20), (16, 13), (16, 17), (16, 18), (16, 23), (16, 24), (16, 25),
                 (16, 28), (16, 35), (16, 39))
$ Visualisation for usage
$  1  8
$  1  9
$  1 10
$  1 16
$  1 20
$  1 25
$  1 28
$  1 30
$  1 33
$  1 37
$  1 39
$  2  1
$  2  2
$  2  6
$  2  7
$  2  9
$  2 10
$  2 14
$  2 19
$  2 24
$  2 26
$  2 30
$  3  2
$  3  5
$  3  8
$  3 12
$  3 19
$  3 24
$  3 29
$  3 30
$  3 33
$  3 36
$  3 38
$  4  5
$  4  8
$  4 12
$  4 20
$  4 28
$  4 31
$  4 33
$  4 35
$  4 37
$  4 40
$  5  2
$  5  5
$  5  6
$  5 12
$  5 17
$  5 18
$  5 19
$  5 23
$  5 25
$  5 27
$  5 29
$  5 33
$  5 34
$  5 40
$  6 10
$  6 11
$  6 18
$  6 21
$  6 30
$  6 36
$  6 37
$  6 39
$  7  3
$  7  5
$  7  8
$  7 19
$  7 21
$  7 22
$  7 26
$  7 29
$  7 33
$  7 37
$  7 38
$  8  2
$  8  4
$  8  5
$  8  7
$  8  8
$  8  9
$  8 10
$  8 18
$  8 22
$  8 23
$  8 24
$  8 26
$  8 30
$  8 36
$  9  1
$  9  2
$  9  6
$  9  9
$  9 12
$  9 17
$  9 20
$  9 23
$  9 26
$  9 32
$  9 37
$  9 38
$  9 39
$ 10 17
$ 10 19
$ 10 23
$ 10 24
$ 10 29
$ 10 31
$ 10 32
$ 10 33
$ 10 35
$ 10 37
$ 10 40
$ 11  1
$ 11  2
$ 11  4
$ 11  7
$ 11  8
$ 11 18
$ 11 20
$ 11 27
$ 11 28
$ 11 35
$ 12  1
$ 12  3
$ 12  4
$ 12  6
$ 12  7
$ 12 11
$ 12 15
$ 12 17
$ 12 18
$ 12 20
$ 12 29
$ 12 31
$ 12 32
$ 12 34
$ 12 35
$ 12 38
$ 12 40
$ 13 21
$ 13 36
$ 13 37
$ 14 17
$ 14 20
$ 14 21
$ 14 25
$ 14 26
$ 14 32
$ 14 34
$ 15  3
$ 15  5
$ 15 10
$ 15 12
$ 15 13
$ 15 20
$ 16 13
$ 16 17
$ 16 18
$ 16 23
$ 16 24
$ 16 25
$ 16 28
$ 16 35
$ 16 39

